Minimize

x_0 + x_1 + x_2 + x_3 + x_4 + x_5 + x_6 + x_7 + x_8


Subject To

a0: 5 x_0 + 7 x_1 + 11 x_2 + 13 x_3 + 17 x_4 + 19 x_5 + 23 x_6 + 29 x_7 + 31 x_8 = 271



Bounds


x_0 <= 54
x_1 <= 38
x_2 <= 24
x_3 <= 20
x_4 <= 15
x_5 <= 14
x_6 <= 11
x_7 <= 9
x_8 <= 8




General

 x_0 x_1 x_2 x_3 x_4 x_5 x_6 x_7 x_8



End
